115377
0,9,28,63,72,44,45,53,20,70,19,66,75,25,35,65,8,76,57,73,31,81,74,39,10,32,15,37,1,29,34,27,78,5,60,77,40,51,38,62,82,7,52,58,67,43,21,4,18,23,30,47,64,49,3,14,68,24,41,54,22,11,2,42,56,33,48,46,59,80,71,50,26,6,55,16,69,13,61,79,12,17,36
